m7.py
Ipopt 3.12.8: 
==> Warning: Treating 42 binary and 0 integer variables as continous.


******************************************************************************
This program contains Ipopt, a library for large-scale nonlinear optimization.
 Ipopt is released as open source code under the Eclipse Public License (EPL).
         For more information visit http://projects.coin-or.org/Ipopt
******************************************************************************

This is Ipopt version 3.12.8, running with linear solver ma27.

Number of nonzeros in equality constraint Jacobian...:        0
Number of nonzeros in inequality constraint Jacobian.:      842
Number of nonzeros in Lagrangian Hessian.............:       14

Total number of variables............................:      112
                     variables with only lower bounds:        0
                variables with lower and upper bounds:       56
                     variables with only upper bounds:        0
Total number of equality constraints.................:        0
Total number of inequality constraints...............:      211
        inequality constraints with only lower bounds:        0
   inequality constraints with lower and upper bounds:        0
        inequality constraints with only upper bounds:      211

iter    objective    inf_pr   inf_du lg(mu)  ||d||  lg(rg) alpha_du alpha_pr  ls
   0  0.0000000e+00 4.85e+00 3.33e+00  -1.0 0.00e+00    -  0.00e+00 0.00e+00   0
   1  5.5551328e-02 4.79e+00 3.30e+00  -1.0 2.61e+00    -  1.15e-02 1.14e-02f  1
   2  1.9433319e-01 4.66e+00 3.43e+00  -1.0 3.90e+00    -  1.10e-02 2.62e-02f  1
   3  4.4647602e+00 9.73e-01 1.82e+01  -1.0 4.09e+00    -  6.05e-02 1.00e+00f  1
   4  1.8016104e+00 6.28e-01 1.26e+01  -1.0 6.57e-01    -  6.05e-01 3.29e-01f  1
   5  1.9214368e+00 0.00e+00 2.53e+00  -1.0 8.45e-01    -  5.04e-01 8.25e-01f  1
   6  2.1005313e+00 0.00e+00 9.58e-01  -1.0 7.41e-01    -  5.62e-01 1.00e+00f  1
   7  2.0949581e+00 0.00e+00 4.01e-01  -1.0 2.09e+00    -  5.73e-01 1.00e+00f  1
   8  3.7915788e-01 0.00e+00 4.22e-02  -1.7 8.61e-01    -  9.06e-01 1.00e+00f  1
   9  5.8612147e-02 0.00e+00 8.01e-03  -2.5 1.00e+00    -  8.74e-01 1.00e+00f  1
iter    objective    inf_pr   inf_du lg(mu)  ||d||  lg(rg) alpha_du alpha_pr  ls
  10  3.1437078e-03 0.00e+00 5.95e-04  -3.8 4.05e-01    -  9.52e-01 1.00e+00f  1
  11  3.7888963e-05 0.00e+00 9.71e-06  -5.7 1.02e-01    -  9.88e-01 1.00e+00h  1
  12 -6.7015080e-07 0.00e+00 2.36e-06  -8.6 1.20e-02    -  9.99e-01 9.98e-01h  1
  13 -7.3334075e-07 0.00e+00 7.80e-01  -8.6 8.73e+00    -  5.04e-01 1.00e+00f  1
  14 -7.3815950e-07 0.00e+00 5.96e-08  -8.6 5.96e-04  -4.0 1.00e+00 1.00e+00h  1
  15 -7.3782074e-07 0.00e+00 8.40e-10  -8.6 2.52e-05  -4.5 1.00e+00 1.00e+00h  1

Number of Iterations....: 15

                                   (scaled)                 (unscaled)
Objective...............:  -7.3782073937640197e-07   -7.3782073937640197e-07
Dual infeasibility......:   8.4045202469981052e-10    8.4045202469981052e-10
Constraint violation....:   0.0000000000000000e+00    0.0000000000000000e+00
Complementarity.........:   2.5123307650398376e-09    2.5123307650398376e-09
Overall NLP error.......:   2.5123307650398376e-09    2.5123307650398376e-09


Number of objective function evaluations             = 16
Number of objective gradient evaluations             = 16
Number of equality constraint evaluations            = 0
Number of inequality constraint evaluations          = 16
Number of equality constraint Jacobian evaluations   = 0
Number of inequality constraint Jacobian evaluations = 16
Number of Lagrangian Hessian evaluations             = 15
Total CPU secs in IPOPT (w/o function evaluations)   =      0.004
Total CPU secs in NLP function evaluations           =      0.004

EXIT: Optimal Solution Found.

Time elapsed: 0.139937162399